c File: data_files/evolved_graphs/g3700.col
c
c Auto generated graph
c
p edge 100 1531
e 1 15
e 1 16
e 1 17
e 1 21
e 1 22
e 1 25
e 1 28
e 1 30
e 1 33
e 1 36
e 1 38
e 1 39
e 1 44
e 1 45
e 1 46
e 1 48
e 1 52
e 1 56
e 1 62
e 1 64
e 1 65
e 1 66
e 1 67
e 1 70
e 1 72
e 1 77
e 1 78
e 1 82
e 1 83
e 1 85
e 1 86
e 1 89
e 1 95
e 2 3
e 2 5
e 2 6
e 2 16
e 2 20
e 2 27
e 2 28
e 2 29
e 2 41
e 2 42
e 2 44
e 2 45
e 2 53
e 2 59
e 2 61
e 2 62
e 2 65
e 2 67
e 2 69
e 2 71
e 2 77
e 2 78
e 2 80
e 2 81
e 2 89
e 2 93
e 2 100
e 3 8
e 3 10
e 3 11
e 3 17
e 3 20
e 3 21
e 3 30
e 3 32
e 3 35
e 3 37
e 3 40
e 3 46
e 3 48
e 3 50
e 3 54
e 3 56
e 3 58
e 3 63
e 3 66
e 3 68
e 3 73
e 3 85
e 4 8
e 4 9
e 4 10
e 4 11
e 4 12
e 4 13
e 4 16
e 4 18
e 4 20
e 4 25
e 4 28
e 4 29
e 4 30
e 4 35
e 4 42
e 4 43
e 4 44
e 4 49
e 4 51
e 4 53
e 4 57
e 4 66
e 4 73
e 4 80
e 4 86
e 4 97
e 5 6
e 5 7
e 5 8
e 5 12
e 5 13
e 5 15
e 5 17
e 5 22
e 5 23
e 5 24
e 5 33
e 5 37
e 5 41
e 5 44
e 5 46
e 5 56
e 5 58
e 5 59
e 5 67
e 5 71
e 5 73
e 5 78
e 5 79
e 5 92
e 6 9
e 6 11
e 6 28
e 6 37
e 6 41
e 6 44
e 6 49
e 6 52
e 6 55
e 6 65
e 6 69
e 6 72
e 6 73
e 6 80
e 6 85
e 6 89
e 6 91
e 6 96
e 6 98
e 6 100
e 7 8
e 7 12
e 7 15
e 7 25
e 7 26
e 7 32
e 7 35
e 7 37
e 7 38
e 7 40
e 7 42
e 7 45
e 7 52
e 7 55
e 7 61
e 7 63
e 7 65
e 7 66
e 7 67
e 7 71
e 7 74
e 7 80
e 7 81
e 7 82
e 7 84
e 7 85
e 7 90
e 7 94
e 7 96
e 7 97
e 8 10
e 8 21
e 8 29
e 8 30
e 8 31
e 8 37
e 8 40
e 8 41
e 8 43
e 8 47
e 8 56
e 8 63
e 8 67
e 8 68
e 8 70
e 8 74
e 8 89
e 8 96
e 9 10
e 9 11
e 9 17
e 9 21
e 9 31
e 9 33
e 9 35
e 9 38
e 9 39
e 9 41
e 9 44
e 9 52
e 9 54
e 9 57
e 9 62
e 9 65
e 9 72
e 9 74
e 9 77
e 9 91
e 9 96
e 10 11
e 10 12
e 10 14
e 10 16
e 10 17
e 10 23
e 10 24
e 10 28
e 10 30
e 10 34
e 10 54
e 10 57
e 10 63
e 10 69
e 10 73
e 10 78
e 10 80
e 10 86
e 10 89
e 10 100
e 11 13
e 11 14
e 11 17
e 11 19
e 11 21
e 11 23
e 11 24
e 11 27
e 11 28
e 11 35
e 11 36
e 11 39
e 11 43
e 11 58
e 11 59
e 11 69
e 11 72
e 11 73
e 11 74
e 11 77
e 11 78
e 11 84
e 11 99
e 11 100
e 12 15
e 12 17
e 12 18
e 12 21
e 12 28
e 12 37
e 12 38
e 12 40
e 12 44
e 12 46
e 12 49
e 12 50
e 12 57
e 12 61
e 12 62
e 12 63
e 12 66
e 12 72
e 12 75
e 12 76
e 12 87
e 12 91
e 12 94
e 12 99
e 13 14
e 13 15
e 13 16
e 13 19
e 13 29
e 13 34
e 13 38
e 13 44
e 13 45
e 13 46
e 13 47
e 13 50
e 13 51
e 13 63
e 13 66
e 13 68
e 13 69
e 13 74
e 13 77
e 13 79
e 13 81
e 13 86
e 13 91
e 13 99
e 14 16
e 14 20
e 14 24
e 14 36
e 14 39
e 14 43
e 14 45
e 14 54
e 14 55
e 14 63
e 14 71
e 14 72
e 14 79
e 14 87
e 14 88
e 14 89
e 14 90
e 14 92
e 14 93
e 14 95
e 15 18
e 15 21
e 15 22
e 15 23
e 15 32
e 15 34
e 15 41
e 15 42
e 15 43
e 15 47
e 15 52
e 15 54
e 15 55
e 15 60
e 15 62
e 15 63
e 15 64
e 15 65
e 15 69
e 15 75
e 15 78
e 15 79
e 15 80
e 15 82
e 15 83
e 15 84
e 15 85
e 15 86
e 15 87
e 15 88
e 15 90
e 15 91
e 15 92
e 15 97
e 16 17
e 16 19
e 16 23
e 16 25
e 16 26
e 16 31
e 16 34
e 16 35
e 16 40
e 16 46
e 16 50
e 16 51
e 16 53
e 16 55
e 16 61
e 16 63
e 16 66
e 16 67
e 16 73
e 16 74
e 16 76
e 16 86
e 16 87
e 16 88
e 16 91
e 16 92
e 17 20
e 17 24
e 17 29
e 17 30
e 17 40
e 17 45
e 17 46
e 17 50
e 17 54
e 17 57
e 17 62
e 17 63
e 17 66
e 17 67
e 17 72
e 17 77
e 17 80
e 17 81
e 17 83
e 17 86
e 17 87
e 17 88
e 17 91
e 17 92
e 18 19
e 18 21
e 18 30
e 18 34
e 18 35
e 18 36
e 18 40
e 18 42
e 18 43
e 18 44
e 18 63
e 18 70
e 18 71
e 18 72
e 18 73
e 18 75
e 18 80
e 18 81
e 18 84
e 18 88
e 18 91
e 18 92
e 19 23
e 19 31
e 19 33
e 19 35
e 19 47
e 19 53
e 19 54
e 19 57
e 19 64
e 19 65
e 19 69
e 19 74
e 19 78
e 19 79
e 19 80
e 19 81
e 19 84
e 19 85
e 19 86
e 19 91
e 19 92
e 19 98
e 20 25
e 20 26
e 20 27
e 20 28
e 20 34
e 20 35
e 20 38
e 20 44
e 20 45
e 20 47
e 20 49
e 20 50
e 20 51
e 20 52
e 20 58
e 20 59
e 20 60
e 20 64
e 20 74
e 20 77
e 20 78
e 20 80
e 20 82
e 20 83
e 20 84
e 20 90
e 20 91
e 21 24
e 21 29
e 21 31
e 21 32
e 21 34
e 21 40
e 21 50
e 21 53
e 21 55
e 21 56
e 21 57
e 21 60
e 21 61
e 21 62
e 21 65
e 21 73
e 21 74
e 21 75
e 21 79
e 21 81
e 21 82
e 21 83
e 21 84
e 21 87
e 21 88
e 21 90
e 21 91
e 22 27
e 22 32
e 22 37
e 22 38
e 22 40
e 22 55
e 22 59
e 22 60
e 22 61
e 22 63
e 22 73
e 22 79
e 22 80
e 22 81
e 22 82
e 22 87
e 22 90
e 22 92
e 22 96
e 22 97
e 23 24
e 23 34
e 23 45
e 23 54
e 23 55
e 23 64
e 23 65
e 23 70
e 23 71
e 23 72
e 23 73
e 23 74
e 23 81
e 23 83
e 23 84
e 23 88
e 23 89
e 23 92
e 24 25
e 24 27
e 24 38
e 24 39
e 24 41
e 24 42
e 24 43
e 24 44
e 24 46
e 24 48
e 24 53
e 24 63
e 24 64
e 24 65
e 24 70
e 24 76
e 24 77
e 24 81
e 24 82
e 24 87
e 24 88
e 24 90
e 24 91
e 25 27
e 25 42
e 25 48
e 25 49
e 25 52
e 25 55
e 25 56
e 25 57
e 25 59
e 25 60
e 25 66
e 25 70
e 25 73
e 25 80
e 25 81
e 25 88
e 25 89
e 25 91
e 25 92
e 26 27
e 26 28
e 26 29
e 26 36
e 26 40
e 26 43
e 26 44
e 26 49
e 26 50
e 26 57
e 26 58
e 26 63
e 26 68
e 26 74
e 26 77
e 26 79
e 26 84
e 26 86
e 26 88
e 26 89
e 26 90
e 26 91
e 27 28
e 27 29
e 27 31
e 27 38
e 27 41
e 27 42
e 27 45
e 27 54
e 27 55
e 27 57
e 27 59
e 27 60
e 27 62
e 27 64
e 27 66
e 27 67
e 27 69
e 27 73
e 27 76
e 27 79
e 27 83
e 27 85
e 27 89
e 27 90
e 27 92
e 28 31
e 28 35
e 28 36
e 28 38
e 28 41
e 28 43
e 28 50
e 28 51
e 28 54
e 28 55
e 28 63
e 28 64
e 28 65
e 28 67
e 28 70
e 28 71
e 28 75
e 28 77
e 28 80
e 28 81
e 28 82
e 28 87
e 28 92
e 29 33
e 29 34
e 29 39
e 29 40
e 29 43
e 29 47
e 29 49
e 29 52
e 29 53
e 29 55
e 29 56
e 29 57
e 29 58
e 29 59
e 29 62
e 29 63
e 29 68
e 29 70
e 29 71
e 29 72
e 29 73
e 29 76
e 29 80
e 29 82
e 29 83
e 29 86
e 29 89
e 29 90
e 29 99
e 30 31
e 30 35
e 30 41
e 30 42
e 30 47
e 30 49
e 30 51
e 30 54
e 30 57
e 30 58
e 30 60
e 30 62
e 30 63
e 30 64
e 30 68
e 30 77
e 30 81
e 30 82
e 30 83
e 30 84
e 30 85
e 30 86
e 30 87
e 30 90
e 30 91
e 30 92
e 31 35
e 31 38
e 31 43
e 31 45
e 31 49
e 31 51
e 31 55
e 31 60
e 31 61
e 31 62
e 31 64
e 31 65
e 31 66
e 31 68
e 31 69
e 31 70
e 31 71
e 31 73
e 31 74
e 31 77
e 31 78
e 31 81
e 31 85
e 31 88
e 31 91
e 31 93
e 32 39
e 32 42
e 32 43
e 32 44
e 32 46
e 32 47
e 32 48
e 32 49
e 32 54
e 32 56
e 32 57
e 32 64
e 32 68
e 32 69
e 32 70
e 32 73
e 32 78
e 32 80
e 32 81
e 32 86
e 32 89
e 32 90
e 33 37
e 33 39
e 33 43
e 33 49
e 33 50
e 33 51
e 33 54
e 33 55
e 33 58
e 33 59
e 33 64
e 33 65
e 33 66
e 33 67
e 33 68
e 33 69
e 33 70
e 33 73
e 33 75
e 33 79
e 33 81
e 33 87
e 33 92
e 34 35
e 34 36
e 34 41
e 34 43
e 34 45
e 34 47
e 34 50
e 34 55
e 34 61
e 34 64
e 34 65
e 34 66
e 34 68
e 34 71
e 34 75
e 34 76
e 34 77
e 34 79
e 34 81
e 34 84
e 34 86
e 34 87
e 34 88
e 34 90
e 34 93
e 35 36
e 35 37
e 35 45
e 35 49
e 35 50
e 35 51
e 35 52
e 35 53
e 35 55
e 35 61
e 35 62
e 35 64
e 35 66
e 35 70
e 35 73
e 35 76
e 35 79
e 35 84
e 35 86
e 35 90
e 35 92
e 36 41
e 36 42
e 36 45
e 36 46
e 36 48
e 36 49
e 36 51
e 36 52
e 36 55
e 36 57
e 36 59
e 36 62
e 36 66
e 36 69
e 36 71
e 36 73
e 36 74
e 36 78
e 36 80
e 36 81
e 36 82
e 36 85
e 36 86
e 36 87
e 36 88
e 36 89
e 36 90
e 36 91
e 36 96
e 37 38
e 37 42
e 37 43
e 37 44
e 37 46
e 37 48
e 37 49
e 37 50
e 37 53
e 37 56
e 37 58
e 37 60
e 37 62
e 37 64
e 37 65
e 37 70
e 37 71
e 37 74
e 37 76
e 37 80
e 37 84
e 37 85
e 37 89
e 37 90
e 38 44
e 38 46
e 38 47
e 38 48
e 38 50
e 38 51
e 38 53
e 38 54
e 38 57
e 38 58
e 38 60
e 38 61
e 38 63
e 38 66
e 38 67
e 38 68
e 38 69
e 38 72
e 38 75
e 38 76
e 38 82
e 38 83
e 38 89
e 38 91
e 38 92
e 38 100
e 39 41
e 39 46
e 39 48
e 39 49
e 39 50
e 39 54
e 39 57
e 39 59
e 39 60
e 39 67
e 39 70
e 39 72
e 39 75
e 39 77
e 39 78
e 39 81
e 39 86
e 39 88
e 39 89
e 39 90
e 40 44
e 40 45
e 40 46
e 40 47
e 40 50
e 40 53
e 40 55
e 40 57
e 40 66
e 40 67
e 40 70
e 40 71
e 40 72
e 40 77
e 40 78
e 40 79
e 40 83
e 40 84
e 40 86
e 40 90
e 40 91
e 40 92
e 40 93
e 40 100
e 41 42
e 41 43
e 41 46
e 41 47
e 41 50
e 41 51
e 41 52
e 41 53
e 41 55
e 41 60
e 41 62
e 41 65
e 41 67
e 41 68
e 41 74
e 41 78
e 41 79
e 41 84
e 41 86
e 41 87
e 41 88
e 41 89
e 41 91
e 41 100
e 42 44
e 42 46
e 42 50
e 42 51
e 42 52
e 42 54
e 42 56
e 42 57
e 42 61
e 42 62
e 42 68
e 42 70
e 42 72
e 42 73
e 42 75
e 42 77
e 42 81
e 42 83
e 42 84
e 42 87
e 42 91
e 42 94
e 43 46
e 43 47
e 43 50
e 43 55
e 43 56
e 43 58
e 43 59
e 43 60
e 43 66
e 43 67
e 43 69
e 43 72
e 43 75
e 43 76
e 43 78
e 43 84
e 43 85
e 43 86
e 43 89
e 43 90
e 43 94
e 43 95
e 44 45
e 44 46
e 44 49
e 44 52
e 44 55
e 44 56
e 44 57
e 44 61
e 44 63
e 44 64
e 44 65
e 44 66
e 44 68
e 44 69
e 44 71
e 44 76
e 44 77
e 44 79
e 44 81
e 44 82
e 44 86
e 44 87
e 44 88
e 44 89
e 44 97
e 44 98
e 45 48
e 45 49
e 45 50
e 45 54
e 45 57
e 45 59
e 45 60
e 45 62
e 45 67
e 45 70
e 45 72
e 45 73
e 45 75
e 45 77
e 45 81
e 45 83
e 45 85
e 45 86
e 45 88
e 45 91
e 45 92
e 46 47
e 46 49
e 46 52
e 46 55
e 46 60
e 46 62
e 46 68
e 46 76
e 46 78
e 46 83
e 46 85
e 46 86
e 46 89
e 46 92
e 46 93
e 47 50
e 47 51
e 47 52
e 47 53
e 47 57
e 47 60
e 47 70
e 47 74
e 47 79
e 47 81
e 47 86
e 47 87
e 47 89
e 48 53
e 48 55
e 48 56
e 48 57
e 48 59
e 48 63
e 48 64
e 48 65
e 48 66
e 48 69
e 48 70
e 48 79
e 48 81
e 48 82
e 48 87
e 48 88
e 48 89
e 48 92
e 49 52
e 49 53
e 49 54
e 49 63
e 49 67
e 49 72
e 49 73
e 49 81
e 49 82
e 49 83
e 49 85
e 49 88
e 49 90
e 49 91
e 49 92
e 49 100
e 50 51
e 50 52
e 50 53
e 50 55
e 50 56
e 50 57
e 50 58
e 50 59
e 50 60
e 50 61
e 50 63
e 50 67
e 50 68
e 50 69
e 50 71
e 50 73
e 50 76
e 50 77
e 50 83
e 50 85
e 50 89
e 50 91
e 50 92
e 50 97
e 50 98
e 50 100
e 51 57
e 51 59
e 51 61
e 51 68
e 51 76
e 51 77
e 51 80
e 51 83
e 51 84
e 51 85
e 51 86
e 51 88
e 51 89
e 51 96
e 51 98
e 52 54
e 52 56
e 52 60
e 52 62
e 52 64
e 52 65
e 52 66
e 52 72
e 52 73
e 52 79
e 52 82
e 52 83
e 52 87
e 52 88
e 52 90
e 52 91
e 53 55
e 53 56
e 53 58
e 53 61
e 53 66
e 53 69
e 53 72
e 53 73
e 53 76
e 53 77
e 53 85
e 53 88
e 53 89
e 53 92
e 53 93
e 54 55
e 54 57
e 54 59
e 54 60
e 54 63
e 54 66
e 54 67
e 54 69
e 54 73
e 54 78
e 54 80
e 54 81
e 54 82
e 54 84
e 54 85
e 54 89
e 54 91
e 54 100
e 55 64
e 55 69
e 55 70
e 55 74
e 55 80
e 55 83
e 55 85
e 55 86
e 55 91
e 55 99
e 56 66
e 56 67
e 56 69
e 56 73
e 56 74
e 56 79
e 56 80
e 56 82
e 56 86
e 56 92
e 56 97
e 57 67
e 57 71
e 57 72
e 57 76
e 57 79
e 57 81
e 57 84
e 57 87
e 57 91
e 57 95
e 58 61
e 58 63
e 58 66
e 58 68
e 58 69
e 58 70
e 58 75
e 58 80
e 58 90
e 58 91
e 58 92
e 59 65
e 59 69
e 59 77
e 59 81
e 59 83
e 59 87
e 59 90
e 59 92
e 59 94
e 59 97
e 60 61
e 60 63
e 60 67
e 60 68
e 60 69
e 60 74
e 60 75
e 60 77
e 60 84
e 60 87
e 60 88
e 60 91
e 60 94
e 60 96
e 60 97
e 61 68
e 61 70
e 61 73
e 61 77
e 61 81
e 61 82
e 61 85
e 61 86
e 61 87
e 61 88
e 61 89
e 61 90
e 61 91
e 61 92
e 61 95
e 61 99
e 62 64
e 62 65
e 62 69
e 62 70
e 62 71
e 62 74
e 62 79
e 62 80
e 62 82
e 62 83
e 62 85
e 62 87
e 62 89
e 63 64
e 63 68
e 63 69
e 63 70
e 63 74
e 63 76
e 63 79
e 63 81
e 63 85
e 63 87
e 63 88
e 63 89
e 63 90
e 63 100
e 64 66
e 64 70
e 64 71
e 64 75
e 64 78
e 64 80
e 64 81
e 64 83
e 64 89
e 64 90
e 64 93
e 64 98
e 65 67
e 65 69
e 65 74
e 65 77
e 65 82
e 65 88
e 65 90
e 65 91
e 66 74
e 66 76
e 66 81
e 66 82
e 66 86
e 66 88
e 66 98
e 67 69
e 67 74
e 67 78
e 67 79
e 67 80
e 67 83
e 67 89
e 67 91
e 68 71
e 68 77
e 68 80
e 68 81
e 68 85
e 68 89
e 68 90
e 69 73
e 69 74
e 69 77
e 69 79
e 69 80
e 69 89
e 69 94
e 69 99
e 70 71
e 70 73
e 70 75
e 70 77
e 70 80
e 70 81
e 70 89
e 70 91
e 70 92
e 71 72
e 71 73
e 71 76
e 71 77
e 71 79
e 71 80
e 71 81
e 71 85
e 71 89
e 71 91
e 72 74
e 72 76
e 72 78
e 72 79
e 72 85
e 72 86
e 72 92
e 72 98
e 73 75
e 73 76
e 73 77
e 73 80
e 73 81
e 73 82
e 73 83
e 73 86
e 73 87
e 73 89
e 73 90
e 73 91
e 73 93
e 74 76
e 74 78
e 74 84
e 74 85
e 74 88
e 74 91
e 74 96
e 74 97
e 75 78
e 75 80
e 75 81
e 75 82
e 75 83
e 75 84
e 75 86
e 75 87
e 75 88
e 75 91
e 75 92
e 76 78
e 76 79
e 76 80
e 76 82
e 76 84
e 76 89
e 76 94
e 76 98
e 77 80
e 77 84
e 77 87
e 77 96
e 78 79
e 78 80
e 78 81
e 78 85
e 78 90
e 78 91
e 78 93
e 78 94
e 78 98
e 78 100
e 79 80
e 79 83
e 79 84
e 79 90
e 79 91
e 79 95
e 79 98
e 79 100
e 80 86
e 80 88
e 80 94
e 81 83
e 81 84
e 81 89
e 81 92
e 81 94
e 81 97
e 82 85
e 82 95
e 82 97
e 82 100
e 83 94
e 83 96
e 83 99
e 84 85
e 84 87
e 84 88
e 84 89
e 84 90
e 85 90
e 85 92
e 85 93
e 85 94
e 85 97
e 85 99
e 86 90
e 86 92
e 86 96
e 86 97
e 86 98
e 86 100
e 87 92
e 88 90
e 88 91
e 88 97
e 89 96
e 90 98
e 90 99
e 91 93
e 91 94
e 91 96
e 92 94
e 92 95
e 93 96
e 93 97
e 93 99
e 94 95
e 94 97
e 94 98
e 95 98
e 95 100
e 97 99
e 98 99
